\ File written by Highs .lp filereader
minimize
 obj: -1 x1 -1 x2 -1 x3 -6 x4 -1 x5 -1 x6 -4 x7 -4 x8 -6 x9 -6 x10 -4 x11 -4 x12 -1 x13 -1 x14 -2 x15 -2 x16 -1 x17 -1 x18 -4 x19 -4 x20 -2 x21 -1 x22 -1 x23 -4 x24 -4 x25 -6 x26 -6 x27 -4 x28 -4 x29 -1 x30 -1 x31 -2 x32 -2 x33 -2 x34 -2 x35 -8 x36 -8 x37 -8 x38 -8 x39 -8 x40 -12 x41 -12 x42 -12 x43 -12 x44 -8 x45 -8 x46 -8 x47 -8 x48 -8 x49 -2 x50 -2 x51 -1 x52 -1 x53 -1 x54 -1 x55 -1 x56 -4 x57 -4 x58 -4 x59 -4 x60 -6 x61 -6 x62 -6 x63 -6 x64 -6 x65 -4 x66 -4 x67 -4 x68 -4 x69 -1 x70 -1 x71 -1 x72 -4 x73 -6 x74 -4 x75 -1 x76 -2 x77 -2 x78 -8 x79 
-12 x80 -12 x81 -8 x82 -2 x83 -1 x84 -4 x85 -4 x86 -6 x87 -4 x88 -4 x89 -1 x90 -1 x91 -4 x92 -4 x93 -6 x94 -4 x95 -4 x96 -1 x97 -2 x98 -2 x99 -8 x100 -12 x101 -12 x102 -8 x103 -2 x104 -2 x105 -1 x106 -4 x107 -4 x108 -6 x109 -4 x110 -4 x111 -1 x112 -1 x113 -1 x114 -1 x115 -1 x116 -1 x117 -4 x118 -4 x119 -4 x120 -4 x121 -6 x122 -6 x123 -6 x124 -6 x125 -6 x126 -4 x127 -4 x128 -4 x129 -4 x130 -1 x131 -1 x132 -1 x133 -1 x134 -1 x135 -2 x136 -2 x137 -2 x138 -2 x139 -8 x140 -8 x141 -8 x142 -8 x143 -8 x144 -12 x145 -12 x146 -12 x147 -12 x148 -8 x149 -8 x150 
-8 x151 -8 x152 -8 x153 -2 x154 -2 x155 -2 x156 -2 x157 -1 x158 -1 x159 -1 x160 -1 x161 -1 x162 -4 x163 -4 x164 -4 x165 -4 x166 -6 x167 -6 x168 -6 x169 -6 x170 -6 x171 -4 x172 -4 x173 -4 x174 -4 x175 -1 x176 -1 x177 -1 x178 -1 x179 -1 x180 -1 x181 -1 x182 -4 x183 -4 x184 -6 x185 -6 x186 -4 x187 -4 x188 -1 x189 -1 x190 -2 x191 -2 x192 -8 x193 -8 x194 -12 x195 -12 x196 -8 x197 -8 x198 -2 x199 -2 x200 -1 x201 -1 x202 -4 x203 -4 x204 -6 x205 -6 x206 -4 x207 -4 x208 -1 x209 -1 x210 -1 x211 -1 x212 -4 x213 -4 x214 -6 x215 -6 x216 -4 x217 -4 x218 -1 x219 
-1 x220 -2 x221 -2 x222 -8 x223 -8 x224 -12 x225 -12 x226 -8 x227 -8 x228 -2 x229 -2 x230 -1 x231 -1 x232 -4 x233 -4 x234 -6 x235 -6 x236 -4 x237 -4 x238 -1 x239 -1 x240 +0 x241 +0 x242 +0 x243 +0 x244 +0 x245 +0 x246 +0 x247 +0 x248 +0 x249 +0 x250 +0 x251 +0 x252 +0 x253 +0 x254 +0 x255 +0 x256 +0 x257 +0 x258 +0 x259 +0 x260 +0 x261 +0 x262 +0 x263 +0 x264 +0 x265 +0 x266 +0 x267 +0 x268 +0 x269 +0 x270 +0 x271 +0 x272 +0 x273 +0 x274 +0 x275 +0 x276 +0 x277 +0 x278 +0 x279 +0 x280 +0 x281 +0 x282 +0 x283 +0 x284 +0 x285 +0 x286 +0 x287 +0 x288 
+0 x289 +0 x290 +0 x291 +0 x292 +0 x293 +0 x294 +0 x295 +0 x296 +0 x297 +0 x298 +0 x299 +0 x300 
st
 con0: +1 x0 +1 x1 +4 x6 +1 x21 +2 x31 +1 x112 +1 x180 = +1
 con1: +1 x1 +1 x2 +4 x7 +1 x21 +2 x33 +1 x90 +1 x115 = +1
 con2: +4 x2 +12 x3 +4 x7 +4 x18 +4 x24 +8 x39 +4 x92 +4 x183 = +4
 con3: +12 x3 +4 x4 +4 x11 +4 x19 +4 x28 +8 x48 +4 x95 +4 x187 = +4
 con4: +2 x4 +2 x5 +2 x15 +2 x20 +8 x48 +2 x50 +2 x104 +2 x199 = +2
 con5: +1 x5 +2 x20 +4 x88 +1 x89 +1 x178 +1 x179 +1 x239 = +1
 con6: +4 x0 +4 x6 +12 x8 +4 x23 +8 x35 +4 x91 +4 x117 +4 x182 = +4
 con7: +4 x1 +4 x6 +4 x7 +12 x9 +8 x36 +4 x91 +4 x118 +4 x183 = +4
 con8: +12 x6 +6 x8 +6 x9 +12 x10 +6 x25 +12 x40 +6 x121 +6 x184 = +6
 con9: +6 x3 +12 x7 +6 x9 +12 x11 +6 x25 +12 x42 +6 x93 +6 x124 = +6
 con10: +12 x8 +4 x10 +4 x12 +4 x27 +8 x44 +4 x94 +4 x126 +4 x186 = +4
 con11: +12 x9 +4 x10 +4 x11 +4 x13 +8 x45 +4 x94 +4 x127 +4 x187 = +4
 con12: +4 x10 +1 x12 +1 x13 +2 x14 +1 x29 +1 x130 +1 x188 = +1
 con13: +1 x4 +4 x11 +1 x13 +2 x15 +1 x29 +1 x96 +1 x133 = +1
 con14: +2 x12 +2 x14 +2 x16 +8 x44 +2 x49 +2 x103 +2 x153 +2 x198 = +2
 con15: +2 x13 +2 x14 +2 x15 +2 x17 +8 x45 +2 x103 +2 x154 +2 x199 = +2
 con16: +2 x14 +1 x16 +1 x17 +4 x65 +1 x69 +1 x175 +1 x208 = +1
 con17: +1 x5 +2 x15 +1 x17 +4 x67 +1 x69 +1 x111 +1 x178 = +1
 con18: +1 x2 +4 x18 +1 x71 +2 x77 +1 x115 +1 x116 +1 x211 = +1
 con19: +6 x3 +12 x18 +12 x19 +6 x73 +12 x80 +6 x124 +6 x125 +6 x215 = +6
 con20: +1 x4 +4 x19 +2 x20 +1 x75 +1 x133 +1 x134 +1 x219 = +1
 con21: +1 x0 +1 x21 +1 x22 +4 x23 +2 x32 +1 x90 +1 x114 = +1
 con22: +1 x2 +1 x21 +1 x22 +4 x24 +2 x34 +1 x71 +1 x180 = +1
 con23: +4 x6 +4 x7 +4 x21 +4 x23 +4 x24 +12 x25 +8 x37 +4 x119 = +4
 con24: +4 x22 +4 x23 +4 x24 +12 x26 +8 x38 +4 x72 +4 x92 +4 x182 = +4
 con25: +6 x8 +12 x23 +6 x25 +6 x26 +12 x27 +12 x41 +6 x93 +6 x123 = +6
 con26: +6 x3 +12 x24 +6 x25 +6 x26 +12 x28 +12 x43 +6 x73 +6 x184 = +6
 con27: +4 x10 +4 x11 +12 x25 +4 x27 +4 x28 +4 x29 +8 x46 +4 x128 = +4
 con28: +12 x26 +4 x27 +4 x28 +4 x30 +8 x47 +4 x74 +4 x95 +4 x186 = +4
 con29: +1 x12 +4 x27 +1 x29 +1 x30 +2 x49 +1 x96 +1 x132 = +1
 con30: +1 x4 +4 x28 +1 x29 +1 x30 +2 x50 +1 x75 +1 x188 = +1
 con31: +2 x0 +2 x31 +2 x32 +8 x35 +2 x51 +2 x97 +2 x135 +2 x190 = +2
 con32: +2 x1 +2 x31 +2 x33 +8 x36 +2 x52 +2 x97 +2 x136 +2 x191 = +2
 con33: +2 x21 +2 x31 +2 x32 +2 x33 +2 x34 +8 x37 +2 x53 +2 x137 = +2
 con34: +2 x22 +2 x32 +2 x34 +8 x38 +2 x54 +2 x76 +2 x98 +2 x190 = +2
 con35: +2 x2 +2 x33 +2 x34 +8 x39 +2 x55 +2 x77 +2 x98 +2 x191 = +2
 con36: +8 x6 +8 x31 +8 x35 +8 x36 +8 x37 +24 x40 +8 x56 +8 x139 +8 x192 = +8
 con37: +8 x23 +8 x32 +8 x35 +8 x37 +8 x38 +24 x41 +8 x57 +8 x99 +8 x141 = +8
 con38: +8 x7 +8 x33 +8 x36 +8 x37 +8 x39 +24 x42 +8 x58 +8 x99 +8 x142 = +8
 con39: +8 x24 +8 x34 +8 x37 +8 x38 +8 x39 +24 x43 +8 x59 +8 x78 +8 x192 = +8
 con40: +12 x8 +24 x35 +12 x40 +12 x41 +24 x44 +12 x60 +12 x100 +12 x144 +12 x194 = +12
 con41: +12 x9 +24 x36 +12 x40 +12 x42 +24 x45 +12 x61 +12 x100 +12 x145 +12 x195 = +12
 con42: +12 x25 +24 x37 +12 x40 +12 x41 +12 x42 +12 x43 +24 x46 +12 x62 +12 x146 = +12
 con43: +12 x26 +24 x38 +12 x41 +12 x43 +24 x47 +12 x63 +12 x79 +12 x101 +12 x194 = +12
 con44: +12 x3 +24 x39 +12 x42 +12 x43 +24 x48 +12 x64 +12 x80 +12 x101 +12 x195 = +12
 con45: +8 x10 +8 x14 +24 x40 +8 x44 +8 x45 +8 x46 +8 x65 +8 x148 +8 x196 = +8
 con46: +8 x27 +24 x41 +8 x44 +8 x46 +8 x47 +8 x49 +8 x66 +8 x102 +8 x150 = +8
 con47: +8 x11 +8 x15 +24 x42 +8 x45 +8 x46 +8 x48 +8 x67 +8 x102 +8 x151 = +8
 con48: +8 x28 +24 x43 +8 x46 +8 x47 +8 x48 +8 x50 +8 x68 +8 x81 +8 x196 = +8
 con49: +2 x14 +2 x15 +2 x29 +8 x46 +2 x49 +2 x50 +2 x69 +2 x155 = +2
 con50: +2 x30 +8 x47 +2 x49 +2 x50 +2 x70 +2 x82 +2 x104 +2 x198 = +2
 con51: +2 x31 +1 x51 +1 x52 +1 x53 +4 x56 +1 x157 +1 x200 = +1
 con52: +2 x32 +1 x51 +1 x53 +1 x54 +4 x57 +1 x105 +1 x159 = +1
 con53: +2 x33 +1 x52 +1 x53 +1 x55 +4 x58 +1 x105 +1 x160 = +1
 con54: +2 x34 +1 x53 +1 x54 +1 x55 +4 x59 +1 x83 +1 x200 = +1
 con55: +8 x35 +4 x51 +4 x56 +4 x57 +12 x60 +4 x106 +4 x162 +4 x202 = +4
 con56: +8 x36 +4 x52 +4 x56 +4 x58 +12 x61 +4 x106 +4 x163 +4 x203 = +4
 con57: +8 x37 +4 x53 +4 x56 +4 x57 +4 x58 +4 x59 +12 x62 +4 x164 = +4
 con58: +8 x38 +4 x54 +4 x57 +4 x59 +12 x63 +4 x84 +4 x107 +4 x202 = +4
 con59: +8 x39 +4 x55 +4 x58 +4 x59 +12 x64 +4 x85 +4 x107 +4 x203 = +4
 con60: +12 x40 +12 x56 +6 x60 +6 x61 +6 x62 +12 x65 +6 x166 +6 x204 = +6
 con61: +12 x41 +12 x57 +6 x60 +6 x62 +6 x63 +12 x66 +6 x108 +6 x168 = +6
 con62: +12 x42 +12 x58 +6 x61 +6 x62 +6 x64 +12 x67 +6 x108 +6 x169 = +6
 con63: +12 x43 +12 x59 +6 x62 +6 x63 +6 x64 +12 x68 +6 x86 +6 x204 = +6
 con64: +4 x16 +8 x44 +12 x60 +4 x65 +4 x66 +4 x109 +4 x171 +4 x206 = +4
 con65: +4 x17 +8 x45 +12 x61 +4 x65 +4 x67 +4 x109 +4 x172 +4 x207 = +4
 con66: +8 x46 +12 x62 +4 x65 +4 x66 +4 x67 +4 x68 +4 x69 +4 x173 = +4
 con67: +8 x47 +12 x63 +4 x66 +4 x68 +4 x70 +4 x87 +4 x110 +4 x206 = +4
 con68: +4 x5 +8 x48 +12 x64 +4 x67 +4 x68 +4 x88 +4 x110 +4 x207 = +4
 con69: +1 x16 +2 x49 +4 x66 +1 x69 +1 x70 +1 x111 +1 x177 = +1
 con70: +1 x5 +2 x50 +4 x68 +1 x69 +1 x70 +1 x89 +1 x208 = +1
 con71: +1 x22 +1 x71 +4 x72 +2 x76 +1 x114 +1 x116 +1 x210 = +1
 con72: +4 x18 +4 x24 +4 x71 +4 x72 +12 x73 +8 x78 +4 x119 +4 x212 = +4
 con73: +6 x26 +12 x72 +6 x73 +12 x74 +12 x79 +6 x123 +6 x125 +6 x214 = +6
 con74: +4 x19 +4 x28 +12 x73 +4 x74 +4 x75 +8 x81 +4 x128 +4 x216 = +4
 con75: +1 x30 +4 x74 +1 x75 +2 x82 +1 x132 +1 x134 +1 x218 = +1
 con76: +2 x34 +2 x71 +2 x76 +2 x77 +8 x78 +2 x83 +2 x137 +2 x220 = +2
 con77: +8 x38 +8 x72 +8 x76 +8 x78 +24 x79 +8 x84 +8 x141 +8 x143 +8 x222 = +8
 con78: +8 x18 +8 x39 +8 x77 +8 x78 +24 x80 +8 x85 +8 x142 +8 x143 +8 x223 = +8
 con79: +12 x43 +12 x73 +24 x78 +12 x79 +12 x80 +24 x81 +12 x86 +12 x146 +12 x224 = +12
 con80: +8 x47 +8 x74 +24 x79 +8 x81 +8 x82 +8 x87 +8 x150 +8 x152 +8 x226 = +8
 con81: +8 x19 +8 x20 +8 x48 +24 x80 +8 x81 +8 x88 +8 x151 +8 x152 +8 x227 = +8
 con82: +2 x20 +2 x50 +2 x75 +8 x81 +2 x82 +2 x89 +2 x155 +2 x228 = +2
 con83: +1 x54 +2 x76 +1 x83 +4 x84 +1 x159 +1 x161 +1 x230 = +1
 con84: +1 x55 +2 x77 +1 x83 +4 x85 +1 x160 +1 x161 +1 x231 = +1
 con85: +4 x59 +8 x78 +4 x83 +4 x84 +4 x85 +12 x86 +4 x164 +4 x232 = +4
 con86: +6 x63 +12 x79 +12 x84 +6 x86 +12 x87 +6 x168 +6 x170 +6 x234 = +6
 con87: +6 x64 +12 x80 +12 x85 +6 x86 +12 x88 +6 x169 +6 x170 +6 x235 = +6
 con88: +4 x68 +8 x81 +12 x86 +4 x87 +4 x88 +4 x89 +4 x173 +4 x236 = +4
 con89: +1 x70 +2 x82 +4 x87 +1 x89 +1 x177 +1 x179 +1 x238 = +1
 con90: +1 x0 +1 x1 +1 x90 +4 x91 +2 x97 +1 x113 +1 x181 = +1
 con91: +1 x2 +1 x22 +1 x90 +4 x92 +2 x98 +1 x116 +1 x181 = +1
 con92: +4 x7 +4 x23 +4 x90 +4 x91 +4 x92 +12 x93 +8 x99 +4 x120 = +4
 con93: +6 x8 +6 x9 +12 x91 +6 x93 +12 x94 +12 x100 +6 x122 +6 x185 = +6
 con94: +6 x3 +6 x26 +12 x92 +6 x93 +12 x95 +12 x101 +6 x125 +6 x185 = +6
 con95: +4 x11 +4 x27 +12 x93 +4 x94 +4 x95 +4 x96 +8 x102 +4 x129 = +4
 con96: +1 x12 +1 x13 +4 x94 +1 x96 +2 x103 +1 x131 +1 x189 = +1
 con97: +1 x4 +1 x30 +4 x95 +1 x96 +2 x104 +1 x134 +1 x189 = +1
 con98: +2 x32 +2 x33 +2 x90 +2 x97 +2 x98 +8 x99 +2 x105 +2 x138 = +2
 con99: +8 x35 +8 x36 +8 x91 +8 x97 +8 x99 +24 x100 +8 x106 +8 x140 +8 x193 = +8
 con100: +8 x38 +8 x39 +8 x92 +8 x98 +8 x99 +24 x101 +8 x107 +8 x143 +8 x193 = +8
 con101: +12 x41 +12 x42 +12 x93 +24 x99 +12 x100 +12 x101 +24 x102 +12 x108 +12 x147 = +12
 con102: +8 x44 +8 x45 +8 x94 +24 x100 +8 x102 +8 x103 +8 x109 +8 x149 +8 x197 = +8
 con103: +8 x47 +8 x48 +8 x95 +24 x101 +8 x102 +8 x104 +8 x110 +8 x152 +8 x197 = +8
 con104: +2 x15 +2 x49 +2 x96 +8 x102 +2 x103 +2 x104 +2 x111 +2 x156 = +2
 con105: +1 x51 +1 x52 +2 x97 +1 x105 +4 x106 +1 x158 +1 x201 = +1
 con106: +1 x54 +1 x55 +2 x98 +1 x105 +4 x107 +1 x161 +1 x201 = +1
 con107: +4 x57 +4 x58 +8 x99 +4 x105 +4 x106 +4 x107 +12 x108 +4 x165 = +4
 con108: +6 x60 +6 x61 +12 x100 +12 x106 +6 x108 +12 x109 +6 x167 +6 x205 = +6
 con109: +6 x63 +6 x64 +12 x101 +12 x107 +6 x108 +12 x110 +6 x170 +6 x205 = +6
 con110: +4 x66 +4 x67 +8 x102 +12 x108 +4 x109 +4 x110 +4 x111 +4 x174 = +4
 con111: +1 x16 +1 x17 +2 x103 +4 x109 +1 x111 +1 x176 +1 x209 = +1
 con112: +1 x5 +1 x70 +2 x104 +4 x110 +1 x111 +1 x179 +1 x209 = +1
 con113: +1 x0 +1 x112 +1 x113 +1 x114 +4 x117 +2 x135 +1 x210 = +1
 con114: +1 x1 +1 x112 +1 x113 +1 x115 +4 x118 +2 x136 +1 x211 = +1
 con115: +1 x21 +1 x71 +1 x112 +1 x114 +1 x115 +4 x119 +2 x137 = +1
 con116: +1 x90 +1 x113 +1 x114 +1 x115 +1 x116 +4 x120 +2 x138 = +1
 con117: +4 x6 +4 x112 +4 x117 +4 x118 +4 x119 +12 x121 +8 x139 +4 x212 = +4
 con118: +4 x91 +4 x113 +4 x117 +4 x118 +4 x120 +12 x122 +8 x140 +4 x213 = +4
 con119: +4 x23 +4 x72 +4 x114 +4 x117 +4 x119 +4 x120 +12 x123 +8 x141 = +4
 con120: +4 x7 +4 x18 +4 x115 +4 x118 +4 x119 +4 x120 +12 x124 +8 x142 = +4
 con121: +4 x18 +4 x72 +4 x92 +4 x116 +4 x120 +12 x125 +8 x143 +4 x213 = +4
 con122: +6 x8 +12 x117 +6 x121 +6 x122 +6 x123 +12 x126 +12 x144 +6 x214 = +6
 con123: +6 x9 +12 x118 +6 x121 +6 x122 +6 x124 +12 x127 +12 x145 +6 x215 = +6
 con124: +6 x25 +6 x73 +12 x119 +6 x121 +6 x123 +6 x124 +12 x128 +12 x146 = +6
 con125: +6 x93 +12 x120 +6 x122 +6 x123 +6 x124 +6 x125 +12 x129 +12 x147 = +6
 con126: +4 x10 +12 x121 +4 x126 +4 x127 +4 x128 +4 x130 +8 x148 +4 x216 = +4
 con127: +4 x94 +12 x122 +4 x126 +4 x127 +4 x129 +4 x131 +8 x149 +4 x217 = +4
 con128: +4 x27 +4 x74 +12 x123 +4 x126 +4 x128 +4 x129 +4 x132 +8 x150 = +4
 con129: +4 x11 +4 x19 +12 x124 +4 x127 +4 x128 +4 x129 +4 x133 +8 x151 = +4
 con130: +4 x19 +4 x74 +4 x95 +12 x125 +4 x129 +4 x134 +8 x152 +4 x217 = +4
 con131: +1 x12 +4 x126 +1 x130 +1 x131 +1 x132 +2 x153 +1 x218 = +1
 con132: +1 x13 +4 x127 +1 x130 +1 x131 +1 x133 +2 x154 +1 x219 = +1
 con133: +1 x29 +1 x75 +4 x128 +1 x130 +1 x132 +1 x133 +2 x155 = +1
 con134: +1 x96 +4 x129 +1 x131 +1 x132 +1 x133 +1 x134 +2 x156 = +1
 con135: +2 x31 +2 x112 +2 x135 +2 x136 +2 x137 +8 x139 +2 x157 +2 x220 = +2
 con136: +2 x97 +2 x113 +2 x135 +2 x136 +2 x138 +8 x140 +2 x158 +2 x221 = +2
 con137: +2 x32 +2 x76 +2 x114 +2 x135 +2 x137 +2 x138 +8 x141 +2 x159 = +2
 con138: +2 x33 +2 x77 +2 x115 +2 x136 +2 x137 +2 x138 +8 x142 +2 x160 = +2
 con139: +2 x76 +2 x77 +2 x98 +2 x116 +2 x138 +8 x143 +2 x161 +2 x221 = +2
 con140: +8 x35 +8 x117 +8 x135 +8 x139 +8 x140 +8 x141 +24 x144 +8 x162 +8 x222 = +8
 con141: +8 x36 +8 x118 +8 x136 +8 x139 +8 x140 +8 x142 +24 x145 +8 x163 +8 x223 = +8
 con142: +8 x37 +8 x78 +8 x119 +8 x137 +8 x139 +8 x141 +8 x142 +24 x146 +8 x164 = +8
 con143: +8 x99 +8 x120 +8 x138 +8 x140 +8 x141 +8 x142 +8 x143 +24 x147 +8 x165 = +8
 con144: +12 x40 +12 x121 +24 x139 +12 x144 +12 x145 +12 x146 +24 x148 +12 x166 +12 x224 = +12
 con145: +12 x100 +12 x122 +24 x140 +12 x144 +12 x145 +12 x147 +24 x149 +12 x167 +12 x225 = +12
 con146: +12 x41 +12 x79 +12 x123 +24 x141 +12 x144 +12 x146 +12 x147 +24 x150 +12 x168 = +12
 con147: +12 x42 +12 x80 +12 x124 +24 x142 +12 x145 +12 x146 +12 x147 +24 x151 +12 x169 = +12
 con148: +12 x79 +12 x80 +12 x101 +12 x125 +24 x143 +12 x147 +24 x152 +12 x170 +12 x225 = +12
 con149: +8 x44 +8 x126 +24 x144 +8 x148 +8 x149 +8 x150 +8 x153 +8 x171 +8 x226 = +8
 con150: +8 x45 +8 x127 +24 x145 +8 x148 +8 x149 +8 x151 +8 x154 +8 x172 +8 x227 = +8
 con151: +8 x46 +8 x81 +8 x128 +24 x146 +8 x148 +8 x150 +8 x151 +8 x155 +8 x173 = +8
 con152: +8 x102 +8 x129 +24 x147 +8 x149 +8 x150 +8 x151 +8 x152 +8 x156 +8 x174 = +8
 con153: +2 x14 +2 x130 +8 x148 +2 x153 +2 x154 +2 x155 +2 x175 +2 x228 = +2
 con154: +2 x103 +2 x131 +8 x149 +2 x153 +2 x154 +2 x156 +2 x176 +2 x229 = +2
 con155: +2 x49 +2 x82 +2 x132 +8 x150 +2 x153 +2 x155 +2 x156 +2 x177 = +2
 con156: +2 x15 +2 x20 +2 x133 +8 x151 +2 x154 +2 x155 +2 x156 +2 x178 = +2
 con157: +2 x20 +2 x82 +2 x104 +2 x134 +8 x152 +2 x156 +2 x179 +2 x229 = +2
 con158: +1 x51 +2 x135 +1 x157 +1 x158 +1 x159 +4 x162 +1 x230 = +1
 con159: +1 x52 +2 x136 +1 x157 +1 x158 +1 x160 +4 x163 +1 x231 = +1
 con160: +1 x53 +1 x83 +2 x137 +1 x157 +1 x159 +1 x160 +4 x164 = +1
 con161: +1 x105 +2 x138 +1 x158 +1 x159 +1 x160 +1 x161 +4 x165 = +1
 con162: +4 x56 +8 x139 +4 x157 +4 x162 +4 x163 +4 x164 +12 x166 +4 x232 = +4
 con163: +4 x106 +8 x140 +4 x158 +4 x162 +4 x163 +4 x165 +12 x167 +4 x233 = +4
 con164: +4 x57 +4 x84 +8 x141 +4 x159 +4 x162 +4 x164 +4 x165 +12 x168 = +4
 con165: +4 x58 +4 x85 +8 x142 +4 x160 +4 x163 +4 x164 +4 x165 +12 x169 = +4
 con166: +4 x84 +4 x85 +4 x107 +8 x143 +4 x161 +4 x165 +12 x170 +4 x233 = +4
 con167: +6 x60 +12 x144 +12 x162 +6 x166 +6 x167 +6 x168 +12 x171 +6 x234 = +6
 con168: +6 x61 +12 x145 +12 x163 +6 x166 +6 x167 +6 x169 +12 x172 +6 x235 = +6
 con169: +6 x62 +6 x86 +12 x146 +12 x164 +6 x166 +6 x168 +6 x169 +12 x173 = +6
 con170: +6 x108 +12 x147 +12 x165 +6 x167 +6 x168 +6 x169 +6 x170 +12 x174 = +6
 con171: +4 x65 +8 x148 +12 x166 +4 x171 +4 x172 +4 x173 +4 x175 +4 x236 = +4
 con172: +4 x109 +8 x149 +12 x167 +4 x171 +4 x172 +4 x174 +4 x176 +4 x237 = +4
 con173: +4 x66 +4 x87 +8 x150 +12 x168 +4 x171 +4 x173 +4 x174 +4 x177 = +4
 con174: +4 x67 +4 x88 +8 x151 +12 x169 +4 x172 +4 x173 +4 x174 +4 x178 = +4
 con175: +4 x87 +4 x88 +4 x110 +8 x152 +12 x170 +4 x174 +4 x179 +4 x237 = +4
 con176: +1 x16 +2 x153 +4 x171 +1 x175 +1 x176 +1 x177 +1 x238 = +1
 con177: +1 x17 +2 x154 +4 x172 +1 x175 +1 x176 +1 x178 +1 x239 = +1
 con178: +1 x69 +1 x89 +2 x155 +4 x173 +1 x175 +1 x177 +1 x178 = +1
 con179: +1 x111 +2 x156 +4 x174 +1 x176 +1 x177 +1 x178 +1 x179 = +1
 con180: +1 x0 +1 x22 +1 x180 +1 x181 +4 x182 +2 x190 +1 x210 = +1
 con181: +1 x1 +1 x2 +1 x180 +1 x181 +4 x183 +2 x191 +1 x211 = +1
 con182: +4 x6 +4 x24 +4 x180 +4 x182 +4 x183 +12 x184 +8 x192 +4 x212 = +4
 con183: +4 x91 +4 x92 +4 x181 +4 x182 +4 x183 +12 x185 +8 x193 +4 x213 = +4
 con184: +6 x8 +6 x26 +12 x182 +6 x184 +6 x185 +12 x186 +12 x194 +6 x214 = +6
 con185: +6 x3 +6 x9 +12 x183 +6 x184 +6 x185 +12 x187 +12 x195 +6 x215 = +6
 con186: +4 x10 +4 x28 +12 x184 +4 x186 +4 x187 +4 x188 +8 x196 +4 x216 = +4
 con187: +4 x94 +4 x95 +12 x185 +4 x186 +4 x187 +4 x189 +8 x197 +4 x217 = +4
 con188: +1 x12 +1 x30 +4 x186 +1 x188 +1 x189 +2 x198 +1 x218 = +1
 con189: +1 x4 +1 x13 +4 x187 +1 x188 +1 x189 +2 x199 +1 x219 = +1
 con190: +2 x31 +2 x34 +2 x180 +2 x190 +2 x191 +8 x192 +2 x200 +2 x220 = +2
 con191: +2 x97 +2 x98 +2 x181 +2 x190 +2 x191 +8 x193 +2 x201 +2 x221 = +2
 con192: +8 x35 +8 x38 +8 x182 +8 x190 +8 x192 +8 x193 +24 x194 +8 x202 +8 x222 = +8
 con193: +8 x36 +8 x39 +8 x183 +8 x191 +8 x192 +8 x193 +24 x195 +8 x203 +8 x223 = +8
 con194: +12 x40 +12 x43 +12 x184 +24 x192 +12 x194 +12 x195 +24 x196 +12 x204 +12 x224 = +12
 con195: +12 x100 +12 x101 +12 x185 +24 x193 +12 x194 +12 x195 +24 x197 +12 x205 +12 x225 = +12
 con196: +8 x44 +8 x47 +8 x186 +24 x194 +8 x196 +8 x197 +8 x198 +8 x206 +8 x226 = +8
 con197: +8 x45 +8 x48 +8 x187 +24 x195 +8 x196 +8 x197 +8 x199 +8 x207 +8 x227 = +8
 con198: +2 x14 +2 x50 +2 x188 +8 x196 +2 x198 +2 x199 +2 x208 +2 x228 = +2
 con199: +2 x103 +2 x104 +2 x189 +8 x197 +2 x198 +2 x199 +2 x209 +2 x229 = +2
 con200: +1 x51 +1 x54 +2 x190 +1 x200 +1 x201 +4 x202 +1 x230 = +1
 con201: +1 x52 +1 x55 +2 x191 +1 x200 +1 x201 +4 x203 +1 x231 = +1
 con202: +4 x56 +4 x59 +8 x192 +4 x200 +4 x202 +4 x203 +12 x204 +4 x232 = +4
 con203: +4 x106 +4 x107 +8 x193 +4 x201 +4 x202 +4 x203 +12 x205 +4 x233 = +4
 con204: +6 x60 +6 x63 +12 x194 +12 x202 +6 x204 +6 x205 +12 x206 +6 x234 = +6
 con205: +6 x61 +6 x64 +12 x195 +12 x203 +6 x204 +6 x205 +12 x207 +6 x235 = +6
 con206: +4 x65 +4 x68 +8 x196 +12 x204 +4 x206 +4 x207 +4 x208 +4 x236 = +4
 con207: +4 x109 +4 x110 +8 x197 +12 x205 +4 x206 +4 x207 +4 x209 +4 x237 = +4
 con208: +1 x16 +1 x70 +2 x198 +4 x206 +1 x208 +1 x209 +1 x238 = +1
 con209: +1 x5 +1 x17 +2 x199 +4 x207 +1 x208 +1 x209 +1 x239 = +1
 con210: +1 x71 +1 x112 +1 x180 +1 x210 +1 x211 +4 x212 +2 x220 = +1
 con211: +1 x113 +1 x116 +1 x181 +1 x210 +1 x211 +4 x213 +2 x221 = +1
 con212: +4 x72 +4 x117 +4 x182 +4 x210 +4 x212 +4 x213 +12 x214 +8 x222 = +4
 con213: +4 x18 +4 x118 +4 x183 +4 x211 +4 x212 +4 x213 +12 x215 +8 x223 = +4
 con214: +6 x73 +6 x121 +6 x184 +12 x212 +6 x214 +6 x215 +12 x216 +12 x224 = +6
 con215: +6 x122 +6 x125 +6 x185 +12 x213 +6 x214 +6 x215 +12 x217 +12 x225 = +6
 con216: +4 x74 +4 x126 +4 x186 +12 x214 +4 x216 +4 x217 +4 x218 +8 x226 = +4
 con217: +4 x19 +4 x127 +4 x187 +12 x215 +4 x216 +4 x217 +4 x219 +8 x227 = +4
 con218: +1 x75 +1 x130 +1 x188 +4 x216 +1 x218 +1 x219 +2 x228 = +1
 con219: +1 x131 +1 x134 +1 x189 +4 x217 +1 x218 +1 x219 +2 x229 = +1
 con220: +2 x76 +2 x135 +2 x190 +2 x210 +2 x220 +2 x221 +8 x222 +2 x230 = +2
 con221: +2 x77 +2 x136 +2 x191 +2 x211 +2 x220 +2 x221 +8 x223 +2 x231 = +2
 con222: +8 x78 +8 x139 +8 x192 +8 x212 +8 x220 +8 x222 +8 x223 +24 x224 +8 x232 = +8
 con223: +8 x140 +8 x143 +8 x193 +8 x213 +8 x221 +8 x222 +8 x223 +24 x225 +8 x233 = +8
 con224: +12 x79 +12 x144 +12 x194 +12 x214 +24 x222 +12 x224 +12 x225 +24 x226 +12 x234 = +12
 con225: +12 x80 +12 x145 +12 x195 +12 x215 +24 x223 +12 x224 +12 x225 +24 x227 +12 x235 = +12
 con226: +8 x81 +8 x148 +8 x196 +8 x216 +24 x224 +8 x226 +8 x227 +8 x228 +8 x236 = +8
 con227: +8 x149 +8 x152 +8 x197 +8 x217 +24 x225 +8 x226 +8 x227 +8 x229 +8 x237 = +8
 con228: +2 x82 +2 x153 +2 x198 +2 x218 +8 x226 +2 x228 +2 x229 +2 x238 = +2
 con229: +2 x20 +2 x154 +2 x199 +2 x219 +8 x227 +2 x228 +2 x229 +2 x239 = +2
 con230: +1 x83 +1 x157 +1 x200 +2 x220 +1 x230 +1 x231 +4 x232 = +1
 con231: +1 x158 +1 x161 +1 x201 +2 x221 +1 x230 +1 x231 +4 x233 = +1
 con232: +4 x84 +4 x162 +4 x202 +8 x222 +4 x230 +4 x232 +4 x233 +12 x234 = +4
 con233: +4 x85 +4 x163 +4 x203 +8 x223 +4 x231 +4 x232 +4 x233 +12 x235 = +4
 con234: +6 x86 +6 x166 +6 x204 +12 x224 +12 x232 +6 x234 +6 x235 +12 x236 = +6
 con235: +6 x167 +6 x170 +6 x205 +12 x225 +12 x233 +6 x234 +6 x235 +12 x237 = +6
 con236: +4 x87 +4 x171 +4 x206 +8 x226 +12 x234 +4 x236 +4 x237 +4 x238 = +4
 con237: +4 x88 +4 x172 +4 x207 +8 x227 +12 x235 +4 x236 +4 x237 +4 x239 = +4
 con238: +1 x89 +1 x175 +1 x208 +2 x228 +4 x236 +1 x238 +1 x239 = +1
 con239: +1 x176 +1 x179 +1 x209 +2 x229 +4 x237 +1 x238 +1 x239 = +1
 con240: +1 x7 -1 x183 -1 x240 = +0
 con241: +1 x11 -1 x187 -1 x241 = +0
 con242: +1 x15 -1 x199 -1 x242 = +0
 con243: +1 x21 -1 x180 -1 x243 = +0
 con244: +1 x23 -1 x182 -1 x244 = +0
 con245: +1 x25 -1 x184 -1 x245 = +0
 con246: +1 x27 -1 x186 -1 x246 = +0
 con247: +1 x29 -1 x188 -1 x247 = +0
 con248: +1 x32 -1 x190 -1 x248 = +0
 con249: +1 x33 -1 x191 -1 x249 = +0
 con250: +1 x37 -1 x192 -1 x250 = +0
 con251: +1 x41 -1 x194 -1 x251 = +0
 con252: +1 x42 -1 x195 -1 x252 = +0
 con253: +1 x46 -1 x196 -1 x253 = +0
 con254: +1 x49 -1 x198 -1 x254 = +0
 con255: +1 x53 -1 x200 -1 x255 = +0
 con256: +1 x57 -1 x202 -1 x256 = +0
 con257: +1 x58 -1 x203 -1 x257 = +0
 con258: +1 x62 -1 x204 -1 x258 = +0
 con259: +1 x66 -1 x206 -1 x259 = +0
 con260: +1 x67 -1 x207 -1 x260 = +0
 con261: +1 x69 -1 x208 -1 x261 = +0
 con262: +1 x90 -1 x181 -1 x262 = +0
 con263: +1 x93 -1 x185 -1 x263 = +0
 con264: +1 x96 -1 x189 -1 x264 = +0
 con265: +1 x99 -1 x193 -1 x265 = +0
 con266: +1 x102 -1 x197 -1 x266 = +0
 con267: +1 x105 -1 x201 -1 x267 = +0
 con268: +1 x108 -1 x205 -1 x268 = +0
 con269: +1 x111 -1 x209 -1 x269 = +0
 con270: +1 x114 -1 x210 -1 x270 = +0
 con271: +1 x115 -1 x211 -1 x271 = +0
 con272: +1 x119 -1 x212 -1 x272 = +0
 con273: +1 x120 -1 x213 -1 x273 = +0
 con274: +1 x123 -1 x214 -1 x274 = +0
 con275: +1 x124 -1 x215 -1 x275 = +0
 con276: +1 x128 -1 x216 -1 x276 = +0
 con277: +1 x129 -1 x217 -1 x277 = +0
 con278: +1 x132 -1 x218 -1 x278 = +0
 con279: +1 x133 -1 x219 -1 x279 = +0
 con280: +1 x137 -1 x220 -1 x280 = +0
 con281: +1 x138 -1 x221 -1 x281 = +0
 con282: +1 x141 -1 x222 -1 x282 = +0
 con283: +1 x142 -1 x223 -1 x283 = +0
 con284: +1 x146 -1 x224 -1 x284 = +0
 con285: +1 x147 -1 x225 -1 x285 = +0
 con286: +1 x150 -1 x226 -1 x286 = +0
 con287: +1 x151 -1 x227 -1 x287 = +0
 con288: +1 x155 -1 x228 -1 x288 = +0
 con289: +1 x156 -1 x229 -1 x289 = +0
 con290: +1 x159 -1 x230 -1 x290 = +0
 con291: +1 x160 -1 x231 -1 x291 = +0
 con292: +1 x164 -1 x232 -1 x292 = +0
 con293: +1 x165 -1 x233 -1 x293 = +0
 con294: +1 x168 -1 x234 -1 x294 = +0
 con295: +1 x169 -1 x235 -1 x295 = +0
 con296: +1 x173 -1 x236 -1 x296 = +0
 con297: +1 x174 -1 x237 -1 x297 = +0
 con298: +1 x177 -1 x238 -1 x298 = +0
 con299: +1 x178 -1 x239 -1 x299 = +0
bounds
 +0 <= x0 <= +1
 +0 <= x1 <= +1
 +0 <= x2 <= +1
 +0 <= x3 <= +1
 +0 <= x4 <= +1
 +0 <= x5 <= +1
 +0 <= x6 <= +1
 +0 <= x7 <= +1
 +0 <= x8 <= +1
 +0 <= x9 <= +1
 +0 <= x10 <= +1
 +0 <= x11 <= +1
 +0 <= x12 <= +1
 +0 <= x13 <= +1
 +0 <= x14 <= +1
 +0 <= x15 <= +1
 +0 <= x16 <= +1
 +0 <= x17 <= +1
 +0 <= x18 <= +1
 +0 <= x19 <= +1
 +0 <= x20 <= +1
 +0 <= x21 <= +1
 +0 <= x22 <= +1
 +0 <= x23 <= +1
 +0 <= x24 <= +1
 +0 <= x25 <= +1
 +0 <= x26 <= +1
 +0 <= x27 <= +1
 +0 <= x28 <= +1
 +0 <= x29 <= +1
 +0 <= x30 <= +1
 +0 <= x31 <= +1
 +0 <= x32 <= +1
 +0 <= x33 <= +1
 +0 <= x34 <= +1
 +0 <= x35 <= +1
 +0 <= x36 <= +1
 +0 <= x37 <= +1
 +0 <= x38 <= +1
 +0 <= x39 <= +1
 +0 <= x40 <= +1
 +0 <= x41 <= +1
 +0 <= x42 <= +1
 +0 <= x43 <= +1
 +0 <= x44 <= +1
 +0 <= x45 <= +1
 +0 <= x46 <= +1
 +0 <= x47 <= +1
 +0 <= x48 <= +1
 +0 <= x49 <= +1
 +0 <= x50 <= +1
 +0 <= x51 <= +1
 +0 <= x52 <= +1
 +0 <= x53 <= +1
 +0 <= x54 <= +1
 +0 <= x55 <= +1
 +0 <= x56 <= +1
 +0 <= x57 <= +1
 +0 <= x58 <= +1
 +0 <= x59 <= +1
 +0 <= x60 <= +1
 +0 <= x61 <= +1
 +0 <= x62 <= +1
 +0 <= x63 <= +1
 +0 <= x64 <= +1
 +0 <= x65 <= +1
 +0 <= x66 <= +1
 +0 <= x67 <= +1
 +0 <= x68 <= +1
 +0 <= x69 <= +1
 +0 <= x70 <= +1
 +0 <= x71 <= +1
 +0 <= x72 <= +1
 +0 <= x73 <= +1
 +0 <= x74 <= +1
 +0 <= x75 <= +1
 +0 <= x76 <= +1
 +0 <= x77 <= +1
 +0 <= x78 <= +1
 +0 <= x79 <= +1
 +0 <= x80 <= +1
 +0 <= x81 <= +1
 +0 <= x82 <= +1
 +0 <= x83 <= +1
 +0 <= x84 <= +1
 +0 <= x85 <= +1
 +0 <= x86 <= +1
 +0 <= x87 <= +1
 +0 <= x88 <= +1
 +0 <= x89 <= +1
 +0 <= x90 <= +1
 +0 <= x91 <= +1
 +0 <= x92 <= +1
 +0 <= x93 <= +1
 +0 <= x94 <= +1
 +0 <= x95 <= +1
 +0 <= x96 <= +1
 +0 <= x97 <= +1
 +0 <= x98 <= +1
 +0 <= x99 <= +1
 +0 <= x100 <= +1
 +0 <= x101 <= +1
 +0 <= x102 <= +1
 +0 <= x103 <= +1
 +0 <= x104 <= +1
 +0 <= x105 <= +1
 +0 <= x106 <= +1
 +0 <= x107 <= +1
 +0 <= x108 <= +1
 +0 <= x109 <= +1
 +0 <= x110 <= +1
 +0 <= x111 <= +1
 +0 <= x112 <= +1
 +0 <= x113 <= +1
 +0 <= x114 <= +1
 +0 <= x115 <= +1
 +0 <= x116 <= +1
 +0 <= x117 <= +1
 +0 <= x118 <= +1
 +0 <= x119 <= +1
 +0 <= x120 <= +1
 +0 <= x121 <= +1
 +0 <= x122 <= +1
 +0 <= x123 <= +1
 +0 <= x124 <= +1
 +0 <= x125 <= +1
 +0 <= x126 <= +1
 +0 <= x127 <= +1
 +0 <= x128 <= +1
 +0 <= x129 <= +1
 +0 <= x130 <= +1
 +0 <= x131 <= +1
 +0 <= x132 <= +1
 +0 <= x133 <= +1
 +0 <= x134 <= +1
 +0 <= x135 <= +1
 +0 <= x136 <= +1
 +0 <= x137 <= +1
 +0 <= x138 <= +1
 +0 <= x139 <= +1
 +0 <= x140 <= +1
 +0 <= x141 <= +1
 +0 <= x142 <= +1
 +0 <= x143 <= +1
 +0 <= x144 <= +1
 +0 <= x145 <= +1
 +0 <= x146 <= +1
 +0 <= x147 <= +1
 +0 <= x148 <= +1
 +0 <= x149 <= +1
 +0 <= x150 <= +1
 +0 <= x151 <= +1
 +0 <= x152 <= +1
 +0 <= x153 <= +1
 +0 <= x154 <= +1
 +0 <= x155 <= +1
 +0 <= x156 <= +1
 +0 <= x157 <= +1
 +0 <= x158 <= +1
 +0 <= x159 <= +1
 +0 <= x160 <= +1
 +0 <= x161 <= +1
 +0 <= x162 <= +1
 +0 <= x163 <= +1
 +0 <= x164 <= +1
 +0 <= x165 <= +1
 +0 <= x166 <= +1
 +0 <= x167 <= +1
 +0 <= x168 <= +1
 +0 <= x169 <= +1
 +0 <= x170 <= +1
 +0 <= x171 <= +1
 +0 <= x172 <= +1
 +0 <= x173 <= +1
 +0 <= x174 <= +1
 +0 <= x175 <= +1
 +0 <= x176 <= +1
 +0 <= x177 <= +1
 +0 <= x178 <= +1
 +0 <= x179 <= +1
 +0 <= x180 <= +1
 +0 <= x181 <= +1
 +0 <= x182 <= +1
 +0 <= x183 <= +1
 +0 <= x184 <= +1
 +0 <= x185 <= +1
 +0 <= x186 <= +1
 +0 <= x187 <= +1
 +0 <= x188 <= +1
 +0 <= x189 <= +1
 +0 <= x190 <= +1
 +0 <= x191 <= +1
 +0 <= x192 <= +1
 +0 <= x193 <= +1
 +0 <= x194 <= +1
 +0 <= x195 <= +1
 +0 <= x196 <= +1
 +0 <= x197 <= +1
 +0 <= x198 <= +1
 +0 <= x199 <= +1
 +0 <= x200 <= +1
 +0 <= x201 <= +1
 +0 <= x202 <= +1
 +0 <= x203 <= +1
 +0 <= x204 <= +1
 +0 <= x205 <= +1
 +0 <= x206 <= +1
 +0 <= x207 <= +1
 +0 <= x208 <= +1
 +0 <= x209 <= +1
 +0 <= x210 <= +1
 +0 <= x211 <= +1
 +0 <= x212 <= +1
 +0 <= x213 <= +1
 +0 <= x214 <= +1
 +0 <= x215 <= +1
 +0 <= x216 <= +1
 +0 <= x217 <= +1
 +0 <= x218 <= +1
 +0 <= x219 <= +1
 +0 <= x220 <= +1
 +0 <= x221 <= +1
 +0 <= x222 <= +1
 +0 <= x223 <= +1
 +0 <= x224 <= +1
 +0 <= x225 <= +1
 +0 <= x226 <= +1
 +0 <= x227 <= +1
 +0 <= x228 <= +1
 +0 <= x229 <= +1
 +0 <= x230 <= +1
 +0 <= x231 <= +1
 +0 <= x232 <= +1
 +0 <= x233 <= +1
 +0 <= x234 <= +1
 +0 <= x235 <= +1
 +0 <= x236 <= +1
 +0 <= x237 <= +1
 +0 <= x238 <= +1
 +0 <= x239 <= +1
 +0 <= x240 <= +0
 +0 <= x241 <= +0
 +0 <= x242 <= +0
 +0 <= x243 <= +0
 +0 <= x244 <= +0
 +0 <= x245 <= +0
 +0 <= x246 <= +0
 +0 <= x247 <= +0
 +0 <= x248 <= +0
 +0 <= x249 <= +0
 +0 <= x250 <= +0
 +0 <= x251 <= +0
 +0 <= x252 <= +0
 +0 <= x253 <= +0
 +0 <= x254 <= +0
 +0 <= x255 <= +0
 +0 <= x256 <= +0
 +0 <= x257 <= +0
 +0 <= x258 <= +0
 +0 <= x259 <= +0
 +0 <= x260 <= +0
 +0 <= x261 <= +0
 +0 <= x262 <= +0
 +0 <= x263 <= +0
 +0 <= x264 <= +0
 +0 <= x265 <= +0
 +0 <= x266 <= +0
 +0 <= x267 <= +0
 +0 <= x268 <= +0
 +0 <= x269 <= +0
 +0 <= x270 <= +0
 +0 <= x271 <= +0
 +0 <= x272 <= +0
 +0 <= x273 <= +0
 +0 <= x274 <= +0
 +0 <= x275 <= +0
 +0 <= x276 <= +0
 +0 <= x277 <= +0
 +0 <= x278 <= +0
 +0 <= x279 <= +0
 +0 <= x280 <= +0
 +0 <= x281 <= +0
 +0 <= x282 <= +0
 +0 <= x283 <= +0
 +0 <= x284 <= +0
 +0 <= x285 <= +0
 +0 <= x286 <= +0
 +0 <= x287 <= +0
 +0 <= x288 <= +0
 +0 <= x289 <= +0
 +0 <= x290 <= +0
 +0 <= x291 <= +0
 +0 <= x292 <= +0
 +0 <= x293 <= +0
 +0 <= x294 <= +0
 +0 <= x295 <= +0
 +0 <= x296 <= +0
 +0 <= x297 <= +0
 +0 <= x298 <= +0
 +0 <= x299 <= +0
binary
general
semi
end
